NAME : XML20_1113_00
COMMENT : Generated as the XML100 dataset from the CVRPLIB
TYPE : CVRP
DIMENSION : 21
EDGE_WEIGHT_TYPE : EUC_2D
CAPACITY : 11
NODE_COORD_SECTION
1    430  41  
2    310  991 
3    488  366 
4    288  143 
5    829  616 
6    523  497 
7    802  849 
8    256  931 
9    597  913 
10   923  150 
11   545  722 
12   920  870 
13   265  988 
14   929  223 
15   414  940 
16   317  101 
17   773  97  
18   516  142 
19   747  75  
20   700  338 
21   633  818 
DEMAND_SECTION
1    0   
2    1   
3    1   
4    1   
5    1   
6    1   
7    1   
8    1   
9    1   
10   1   
11   1   
12   1   
13   1   
14   1   
15   1   
16   1   
17   1   
18   1   
19   1   
20   1   
21   1   
DEPOT_SECTION
1
-1
EOF
